unsat
((set-logic NIA)
(declare-fun n!0 () Int)
(declare-fun k!2 () Int)
(declare-fun m!1 () Int)
(declare-fun c!3 () Int)
(proof
(let ((?x1163 (* n!0 n!0)))
 (let ((?x1238 (* 3 ?x1163)))
 (let ((?x1193 (* (- 1) k!2)))
 (let ((?x1214 (* (- 1) m!1)))
 (let ((?x1112 (* 9 n!0)))
 (let ((?x1308 (+ ?x1112 ?x1214 ?x1193 ?x1238)))
 (let (($x1310 (= ?x1308 (- 7))))
 (let (($x1315 (not $x1310)))
 (let ((?x1194 (* (- 3) c!3)))
 (let ((?x1123 (* n!0 k!2)))
 (let ((?x1192 (* 2 n!0)))
 (let ((?x1135 (* (- 9) (* n!0 c!3))))
 (let ((?x1169 (* m!1 m!1)))
 (let ((?x1147 (* k!2 k!2)))
 (let ((?x1274 (+ ?x1112 (* (- 9) ?x1123) (* (- 5) m!1) (* (- 32) k!2) (* (- 27) c!3) ?x1147 ?x1169 ?x1135 (* 2 (* m!1 k!2)))))
 (let ((?x1235 (+ (* 3 n!0) ?x1193 ?x1238)))
 (let (($x1236 (= ?x1235 (- 1))))
 (let ((?x1206 (+ (* 6 n!0) ?x1214)))
 (let (($x1215 (= ?x1206 (- 6))))
 (let (($x1302 (and $x1215 (= (+ ?x1112 (* (- 5) k!2) (* (- 18) c!3) ?x1147 ?x1135) (- 4)) (= (+ ?x1192 ?x1123 ?x1193 ?x1194) (- 1)) $x1236 (= ?x1274 (- 13)) (= (+ ?x1192 ?x1123 (* (- 3) k!2) ?x1194 (* n!0 m!1)) (- 3)) $x1315)))
 (let ((?x1158 (* k!2 n!0)))
 (let ((?x1159 (* (- 1) ?x1158)))
 (let ((?x1157 (* (- 2) n!0)))
 (let ((?x1156 (* 3 c!3)))
 (let (($x1177 (= (+ ?x1156 (* 3 k!2) ?x1157 ?x1159 (* (- 1) (* m!1 n!0))) 3)))
 (let ((?x1111 (* 9 (* c!3 n!0))))
 (let ((?x1150 (* (- 1) ?x1147)))
 (let ((?x1145 (* (- 9) n!0)))
 (let ((?x1171 (+ (* 27 c!3) (* 32 k!2) (* 5 m!1) ?x1145 ?x1150 ?x1111 (* 9 ?x1158) (* (- 2) (* k!2 m!1)) (* (- 1) ?x1169))))
 (let (($x1181 (and (= (+ m!1 (* (- 6) n!0)) 6) (= (+ (* 18 c!3) (* 5 k!2) ?x1145 ?x1150 ?x1111) 4) (= (+ ?x1156 k!2 ?x1157 ?x1159) 1) (= (+ k!2 (* (- 3) n!0) (* (- 3) ?x1163)) 1) (= ?x1171 13) $x1177 (not (= (+ k!2 m!1 ?x1145 (* (- 3) ?x1163)) 7)))))
 (let (($x1223 (exists ((c Int) (k Int) (m Int) (n Int) )(! (let (($x1257 (not (= (+ k m (* (- 9) n) (* (- 3) (* n n))) 7))))
 (let ((?x238 (* k n)))
 (let ((?x299 (* (- 1) ?x238)))
 (let ((?x298 (* (- 2) n)))
 (let ((?x708 (* 3 k)))
 (let ((?x54 (* 3 c)))
 (let (($x752 (= (+ ?x54 ?x708 ?x298 ?x299 (* (- 1) (* m n))) 3)))
 (let ((?x145 (* c n)))
 (let ((?x146 (* 9 ?x145)))
 (let ((?x34 (* k k)))
 (let ((?x232 (* (- 1) ?x34)))
 (let ((?x231 (* (- 9) n)))
 (let ((?x539 (* 5 m)))
 (let ((?x632 (+ (* 27 c) (* 32 k) ?x539 ?x231 ?x232 ?x146 (* 9 ?x238) (* (- 2) (* k m)) (* (- 1) (* m m)))))
 (let (($x623 (= ?x632 13)))
 (let (($x345 (= (+ k (* (- 3) n) (* (- 3) (* n n))) 1)))
 (let (($x301 (= (+ ?x54 k ?x298 ?x299) 1)))
 (let (($x230 (= (+ (* 18 c) (* 5 k) ?x231 ?x232 ?x146) 4)))
 (let ((?x110 (* (- 6) n)))
 (let ((?x113 (+ m ?x110)))
 (let (($x140 (= ?x113 6)))
 (and $x140 $x230 $x301 $x345 $x623 $x752 $x1257)))))))))))))))))))))) :qid k!36))
 ))
 (let (($x1101 (exists ((c Int) (k Int) (m Int) (n Int) )(! (let ((?x694 (* (- 1) m)))
 (let ((?x252 (* (- 1) k)))
 (let ((?x61 (* 3 n)))
 (let (($x1143 (= (+ (* 3 (* (+ 1 n) (+ 1 n))) ?x61 ?x252 ?x694) (- 4))))
 (let (($x1148 (not $x1143)))
 (let ((?x273 (* (- 3) c)))
 (let ((?x1057 (* (- 4) k)))
 (let ((?x51 (* 2 n)))
 (let ((?x72 (+ k m)))
 (let ((?x353 (+ 1 n)))
 (let ((?x636 (* ?x353 ?x72)))
 (let (($x1077 (= (+ ?x636 ?x51 ?x1057 ?x694 ?x273) (- 3))))
 (let ((?x206 (* (- 18) c)))
 (let ((?x556 (* (- 5) m)))
 (let ((?x993 (* (- 23) k)))
 (let ((?x38 (* 9 n)))
 (let ((?x74 (+ c k)))
 (let ((?x934 (* ?x353 ?x74)))
 (let ((?x949 (* (- 9) ?x934)))
 (let ((?x73 (* ?x72 ?x72)))
 (let (($x1014 (= (+ ?x73 ?x949 ?x38 ?x993 ?x556 ?x206) (- 13))))
 (let ((?x306 (* n n)))
 (let ((?x307 (* 3 ?x306)))
 (let ((?x913 (+ ?x307 ?x61 ?x252)))
 (let (($x929 (= ?x913 (- 1))))
 (let ((?x49 (* n k)))
 (let ((?x881 (+ ?x49 ?x51 ?x252 ?x273)))
 (let (($x899 (= ?x881 (- 1))))
 (let ((?x183 (* (- 5) k)))
 (let ((?x432 (* n c)))
 (let ((?x488 (* (- 9) ?x432)))
 (let ((?x34 (* k k)))
 (let ((?x832 (+ ?x34 ?x488 ?x38 ?x183 ?x206)))
 (let (($x857 (= ?x832 (- 4))))
 (let ((?x110 (* (- 6) n)))
 (let ((?x113 (+ m ?x110)))
 (let (($x140 (= ?x113 6)))
 (and $x140 $x857 $x899 $x929 $x1014 $x1077 $x1148)))))))))))))))))))))))))))))))))))))) :qid k!36))
 ))
 (let ((?x1225 (lambda ((c Int) (k Int) (m Int) (n Int) )(let (($x1257 (not (= (+ k m (* (- 9) n) (* (- 3) (* n n))) 7))))
 (let ((?x238 (* k n)))
 (let ((?x299 (* (- 1) ?x238)))
 (let ((?x298 (* (- 2) n)))
 (let ((?x708 (* 3 k)))
 (let ((?x54 (* 3 c)))
 (let (($x752 (= (+ ?x54 ?x708 ?x298 ?x299 (* (- 1) (* m n))) 3)))
 (let ((?x145 (* c n)))
 (let ((?x146 (* 9 ?x145)))
 (let ((?x34 (* k k)))
 (let ((?x232 (* (- 1) ?x34)))
 (let ((?x231 (* (- 9) n)))
 (let ((?x539 (* 5 m)))
 (let ((?x632 (+ (* 27 c) (* 32 k) ?x539 ?x231 ?x232 ?x146 (* 9 ?x238) (* (- 2) (* k m)) (* (- 1) (* m m)))))
 (let (($x623 (= ?x632 13)))
 (let (($x345 (= (+ k (* (- 3) n) (* (- 3) (* n n))) 1)))
 (let (($x301 (= (+ ?x54 k ?x298 ?x299) 1)))
 (let (($x230 (= (+ (* 18 c) (* 5 k) ?x231 ?x232 ?x146) 4)))
 (let ((?x110 (* (- 6) n)))
 (let ((?x113 (+ m ?x110)))
 (let (($x140 (= ?x113 6)))
 (let (($x1207 (and $x140 $x230 $x301 $x345 $x623 $x752 $x1257)))
 (let ((?x694 (* (- 1) m)))
 (let ((?x252 (* (- 1) k)))
 (let ((?x61 (* 3 n)))
 (let (($x1143 (= (+ (* 3 (* (+ 1 n) (+ 1 n))) ?x61 ?x252 ?x694) (- 4))))
 (let (($x1148 (not $x1143)))
 (let ((?x273 (* (- 3) c)))
 (let ((?x1057 (* (- 4) k)))
 (let ((?x51 (* 2 n)))
 (let ((?x72 (+ k m)))
 (let ((?x353 (+ 1 n)))
 (let ((?x636 (* ?x353 ?x72)))
 (let (($x1077 (= (+ ?x636 ?x51 ?x1057 ?x694 ?x273) (- 3))))
 (let ((?x206 (* (- 18) c)))
 (let ((?x556 (* (- 5) m)))
 (let ((?x993 (* (- 23) k)))
 (let ((?x38 (* 9 n)))
 (let ((?x74 (+ c k)))
 (let ((?x934 (* ?x353 ?x74)))
 (let ((?x949 (* (- 9) ?x934)))
 (let ((?x73 (* ?x72 ?x72)))
 (let (($x1014 (= (+ ?x73 ?x949 ?x38 ?x993 ?x556 ?x206) (- 13))))
 (let ((?x306 (* n n)))
 (let ((?x307 (* 3 ?x306)))
 (let ((?x913 (+ ?x307 ?x61 ?x252)))
 (let (($x929 (= ?x913 (- 1))))
 (let ((?x49 (* n k)))
 (let ((?x881 (+ ?x49 ?x51 ?x252 ?x273)))
 (let (($x899 (= ?x881 (- 1))))
 (let ((?x183 (* (- 5) k)))
 (let ((?x432 (* n c)))
 (let ((?x488 (* (- 9) ?x432)))
 (let ((?x832 (+ ?x34 ?x488 ?x38 ?x183 ?x206)))
 (let (($x857 (= ?x832 (- 4))))
 (let (($x1096 (and $x140 $x857 $x899 $x929 $x1014 $x1077 $x1148)))
 (rewrite (= $x1096 $x1207)))))))))))))))))))))))))))))))))))))))))))))))))))))))))))
 ))
 (let (($x102 (exists ((c Int) (k Int) (m Int) (n Int) )(! (let ((?x72 (+ k m)))
 (let ((?x95 (+ (* 3 (+ n 1) (+ n 1)) (* 3 (+ n 1)))))
 (let (($x99 (not (= (+ (- ?x95 ?x72) 1) 0))))
 (let (($x100 (or $x99)))
 (let ((?x74 (+ c k)))
 (let ((?x88 (* 3 ?x74)))
 (let ((?x67 (+ n 1)))
 (let ((?x86 (* 2 ?x67)))
 (let ((?x85 (* ?x67 ?x72)))
 (let ((?x87 (+ ?x85 ?x86)))
 (let ((?x89 (- ?x87 ?x72)))
 (let ((?x90 (- ?x89 ?x88)))
 (let ((?x91 (+ ?x90 1)))
 (let (($x92 (= ?x91 0)))
 (let ((?x80 (* 18 ?x74)))
 (let ((?x79 (* 5 ?x72)))
 (let ((?x77 (* 9 ?x67)))
 (let ((?x75 (* 9 ?x67 ?x74)))
 (let ((?x73 (* ?x72 ?x72)))
 (let ((?x76 (- ?x73 ?x75)))
 (let ((?x78 (+ ?x76 ?x77)))
 (let ((?x81 (- ?x78 ?x79)))
 (let ((?x82 (- ?x81 ?x80)))
 (let ((?x83 (+ ?x82 4)))
 (let (($x84 (= ?x83 0)))
 (let ((?x68 (* 6 ?x67)))
 (let ((?x66 (+ m 6)))
 (let ((?x69 (- ?x66 ?x68)))
 (let ((?x70 (- ?x69 6)))
 (let (($x71 (= ?x70 0)))
 (let ((?x61 (* 3 n)))
 (let ((?x60 (* 3 n n)))
 (let ((?x62 (+ ?x60 ?x61)))
 (let ((?x63 (- ?x62 k)))
 (let ((?x64 (+ ?x63 1)))
 (let (($x65 (= ?x64 0)))
 (let ((?x54 (* 3 c)))
 (let ((?x51 (* 2 n)))
 (let ((?x49 (* n k)))
 (let ((?x52 (+ ?x49 ?x51)))
 (let ((?x55 (- ?x52 k)))
 (let ((?x56 (- ?x55 ?x54)))
 (let ((?x58 (+ ?x56 1)))
 (let (($x59 (= ?x58 0)))
 (let ((?x43 (* 18 c)))
 (let ((?x41 (* 5 k)))
 (let ((?x38 (* 9 n)))
 (let ((?x36 (* 9 n c)))
 (let ((?x34 (* k k)))
 (let ((?x37 (- ?x34 ?x36)))
 (let ((?x39 (+ ?x37 ?x38)))
 (let ((?x44 (- ?x39 ?x41)))
 (let ((?x45 (- ?x44 ?x43)))
 (let ((?x47 (+ ?x45 4)))
 (let (($x48 (= ?x47 0)))
 (let ((?x29 (* 6 n)))
 (let ((?x30 (- m ?x29)))
 (let ((?x31 (- ?x30 6)))
 (let (($x33 (= ?x31 0)))
 (and $x33 $x48 $x59 $x65 $x71 $x84 $x92 $x100)))))))))))))))))))))))))))))))))))))))))))))))))))))))))))) :qid k!36))
 ))
 (let ((?x1104 (lambda ((c Int) (k Int) (m Int) (n Int) )(let ((?x694 (* (- 1) m)))
 (let ((?x252 (* (- 1) k)))
 (let ((?x61 (* 3 n)))
 (let (($x1143 (= (+ (* 3 (* (+ 1 n) (+ 1 n))) ?x61 ?x252 ?x694) (- 4))))
 (let (($x1148 (not $x1143)))
 (let ((?x273 (* (- 3) c)))
 (let ((?x1057 (* (- 4) k)))
 (let ((?x51 (* 2 n)))
 (let ((?x72 (+ k m)))
 (let ((?x353 (+ 1 n)))
 (let ((?x636 (* ?x353 ?x72)))
 (let (($x1077 (= (+ ?x636 ?x51 ?x1057 ?x694 ?x273) (- 3))))
 (let ((?x206 (* (- 18) c)))
 (let ((?x556 (* (- 5) m)))
 (let ((?x993 (* (- 23) k)))
 (let ((?x38 (* 9 n)))
 (let ((?x74 (+ c k)))
 (let ((?x934 (* ?x353 ?x74)))
 (let ((?x949 (* (- 9) ?x934)))
 (let ((?x73 (* ?x72 ?x72)))
 (let (($x1014 (= (+ ?x73 ?x949 ?x38 ?x993 ?x556 ?x206) (- 13))))
 (let ((?x306 (* n n)))
 (let ((?x307 (* 3 ?x306)))
 (let ((?x913 (+ ?x307 ?x61 ?x252)))
 (let (($x929 (= ?x913 (- 1))))
 (let ((?x49 (* n k)))
 (let ((?x881 (+ ?x49 ?x51 ?x252 ?x273)))
 (let (($x899 (= ?x881 (- 1))))
 (let ((?x183 (* (- 5) k)))
 (let ((?x432 (* n c)))
 (let ((?x488 (* (- 9) ?x432)))
 (let ((?x34 (* k k)))
 (let ((?x832 (+ ?x34 ?x488 ?x38 ?x183 ?x206)))
 (let (($x857 (= ?x832 (- 4))))
 (let ((?x110 (* (- 6) n)))
 (let ((?x113 (+ m ?x110)))
 (let (($x140 (= ?x113 6)))
 (let (($x1096 (and $x140 $x857 $x899 $x929 $x1014 $x1077 $x1148)))
 (let ((?x95 (+ (* 3 (+ n 1) (+ n 1)) (* 3 (+ n 1)))))
 (let (($x99 (not (= (+ (- ?x95 ?x72) 1) 0))))
 (let (($x100 (or $x99)))
 (let ((?x88 (* 3 ?x74)))
 (let ((?x67 (+ n 1)))
 (let ((?x86 (* 2 ?x67)))
 (let ((?x85 (* ?x67 ?x72)))
 (let ((?x87 (+ ?x85 ?x86)))
 (let ((?x89 (- ?x87 ?x72)))
 (let ((?x90 (- ?x89 ?x88)))
 (let ((?x91 (+ ?x90 1)))
 (let (($x92 (= ?x91 0)))
 (let ((?x80 (* 18 ?x74)))
 (let ((?x79 (* 5 ?x72)))
 (let ((?x77 (* 9 ?x67)))
 (let ((?x75 (* 9 ?x67 ?x74)))
 (let ((?x76 (- ?x73 ?x75)))
 (let ((?x78 (+ ?x76 ?x77)))
 (let ((?x81 (- ?x78 ?x79)))
 (let ((?x82 (- ?x81 ?x80)))
 (let ((?x83 (+ ?x82 4)))
 (let (($x84 (= ?x83 0)))
 (let ((?x68 (* 6 ?x67)))
 (let ((?x66 (+ m 6)))
 (let ((?x69 (- ?x66 ?x68)))
 (let ((?x70 (- ?x69 6)))
 (let (($x71 (= ?x70 0)))
 (let ((?x60 (* 3 n n)))
 (let ((?x62 (+ ?x60 ?x61)))
 (let ((?x63 (- ?x62 k)))
 (let ((?x64 (+ ?x63 1)))
 (let (($x65 (= ?x64 0)))
 (let ((?x54 (* 3 c)))
 (let ((?x52 (+ ?x49 ?x51)))
 (let ((?x55 (- ?x52 k)))
 (let ((?x56 (- ?x55 ?x54)))
 (let ((?x58 (+ ?x56 1)))
 (let (($x59 (= ?x58 0)))
 (let ((?x43 (* 18 c)))
 (let ((?x41 (* 5 k)))
 (let ((?x36 (* 9 n c)))
 (let ((?x37 (- ?x34 ?x36)))
 (let ((?x39 (+ ?x37 ?x38)))
 (let ((?x44 (- ?x39 ?x41)))
 (let ((?x45 (- ?x44 ?x43)))
 (let ((?x47 (+ ?x45 4)))
 (let (($x48 (= ?x47 0)))
 (let ((?x29 (* 6 n)))
 (let ((?x30 (- m ?x29)))
 (let ((?x31 (- ?x30 6)))
 (let (($x33 (= ?x31 0)))
 (let (($x101 (and $x33 $x48 $x59 $x65 $x71 $x84 $x92 $x100)))
 (let ((@x1090 (trans (monotonicity (rewrite (= $x99 $x1148)) (= $x100 (or $x1148))) (rewrite (= (or $x1148) $x1148)) (= $x100 $x1148))))
 (let ((?x1068 (+ 3 ?x636 ?x51 ?x1057 ?x694 ?x273)))
 (let ((?x1058 (+ 2 ?x636 ?x51 ?x1057 ?x694 ?x273)))
 (let ((?x1065 (+ ?x1058 1)))
 (let ((?x708 (* 3 k)))
 (let ((?x709 (+ ?x54 ?x708)))
 (let ((?x715 (* (- 1) ?x709)))
 (let ((?x1039 (+ 2 ?x636 ?x51 ?x252 ?x694)))
 (let ((?x1049 (+ ?x1039 ?x715)))
 (let ((@x731 (rewrite (= (+ (* (- 1) ?x54) (* (- 1) ?x708)) (+ ?x273 (* (- 3) k))))))
 (let ((@x727 (trans (rewrite (= ?x715 (+ (* (- 1) ?x54) (* (- 1) ?x708)))) @x731 (= ?x715 (+ ?x273 (* (- 3) k))))))
 (let ((@x1062 (trans (monotonicity @x727 (= ?x1049 (+ ?x1039 (+ ?x273 (* (- 3) k))))) (rewrite (= (+ ?x1039 (+ ?x273 (* (- 3) k))) ?x1058)) (= ?x1049 ?x1058))))
 (let ((@x711 (rewrite (= ?x88 ?x709))))
 (let ((?x695 (+ ?x252 ?x694)))
 (let ((?x1023 (+ 2 ?x636 ?x51)))
 (let ((?x1036 (+ ?x1023 ?x695)))
 (let ((?x688 (* (- 1) ?x72)))
 (let ((?x1031 (+ ?x1023 ?x688)))
 (let ((@x697 (rewrite (= ?x688 ?x695))))
 (let ((@x1043 (trans (monotonicity @x697 (= ?x1031 ?x1036)) (rewrite (= ?x1036 ?x1039)) (= ?x1031 ?x1039))))
 (let ((@x671 (trans (monotonicity (rewrite (= ?x67 ?x353)) (= ?x86 (* 2 ?x353))) (rewrite (= (* 2 ?x353) (+ (* 2 1) ?x51))) (= ?x86 (+ (* 2 1) ?x51)))))
 (let ((@x673 (trans @x671 (rewrite (= (+ (* 2 1) ?x51) (+ 2 ?x51))) (= ?x86 (+ 2 ?x51)))))
 (let ((@x1022 (monotonicity (rewrite (= ?x85 ?x636)) @x673 (= ?x87 (+ ?x636 (+ 2 ?x51))))))
 (let ((@x1027 (trans @x1022 (rewrite (= (+ ?x636 (+ 2 ?x51)) ?x1023)) (= ?x87 ?x1023))))
 (let ((@x1035 (trans (monotonicity @x1027 (= ?x89 (- ?x1023 ?x72))) (rewrite (= (- ?x1023 ?x72) ?x1031)) (= ?x89 ?x1031))))
 (let ((@x1048 (monotonicity (trans @x1035 @x1043 (= ?x89 ?x1039)) @x711 (= ?x90 (- ?x1039 ?x709)))))
 (let ((@x1064 (trans (trans @x1048 (rewrite (= (- ?x1039 ?x709) ?x1049)) (= ?x90 ?x1049)) @x1062 (= ?x90 ?x1058))))
 (let ((@x1072 (trans (monotonicity @x1064 (= ?x91 ?x1065)) (rewrite (= ?x1065 ?x1068)) (= ?x91 ?x1068))))
 (let ((@x1081 (trans (monotonicity @x1072 (= $x92 (= ?x1068 0))) (rewrite (= (= ?x1068 0) $x1077)) (= $x92 $x1077))))
 (let ((@x1016 (rewrite (= (= (+ 13 ?x73 ?x949 ?x38 ?x993 ?x556 ?x206) 0) $x1014))))
 (let ((?x1004 (+ 13 ?x73 ?x949 ?x38 ?x993 ?x556 ?x206)))
 (let ((?x994 (+ 9 ?x73 ?x949 ?x38 ?x993 ?x556 ?x206)))
 (let ((?x1001 (+ ?x994 4)))
 (let ((?x574 (* 18 k)))
 (let ((?x575 (+ ?x43 ?x574)))
 (let ((?x581 (* (- 1) ?x575)))
 (let ((?x974 (+ 9 ?x73 ?x949 ?x38 ?x183 ?x556)))
 (let ((?x984 (+ ?x974 ?x581)))
 (let ((@x597 (rewrite (= (+ (* (- 1) ?x43) (* (- 1) ?x574)) (+ ?x206 (* (- 18) k))))))
 (let ((@x593 (trans (rewrite (= ?x581 (+ (* (- 1) ?x43) (* (- 1) ?x574)))) @x597 (= ?x581 (+ ?x206 (* (- 18) k))))))
 (let ((@x998 (trans (monotonicity @x593 (= ?x984 (+ ?x974 (+ ?x206 (* (- 18) k))))) (rewrite (= (+ ?x974 (+ ?x206 (* (- 18) k))) ?x994)) (= ?x984 ?x994))))
 (let ((@x577 (rewrite (= ?x80 ?x575))))
 (let ((?x539 (* 5 m)))
 (let ((?x540 (+ ?x41 ?x539)))
 (let ((?x546 (* (- 1) ?x540)))
 (let ((?x958 (+ 9 ?x73 ?x949 ?x38)))
 (let ((?x966 (+ ?x958 ?x546)))
 (let ((@x558 (trans (rewrite (= ?x546 (+ (* (- 1) ?x41) (* (- 1) ?x539)))) (rewrite (= (+ (* (- 1) ?x41) (* (- 1) ?x539)) (+ ?x183 ?x556))) (= ?x546 (+ ?x183 ?x556)))))
 (let ((@x978 (trans (monotonicity @x558 (= ?x966 (+ ?x958 (+ ?x183 ?x556)))) (rewrite (= (+ ?x958 (+ ?x183 ?x556)) ?x974)) (= ?x966 ?x974))))
 (let ((@x542 (rewrite (= ?x79 ?x540))))
 (let ((@x525 (trans (monotonicity (rewrite (= ?x67 ?x353)) (= ?x77 (* 9 ?x353))) (rewrite (= (* 9 ?x353) (+ (* 9 1) ?x38))) (= ?x77 (+ (* 9 1) ?x38)))))
 (let ((@x527 (trans @x525 (rewrite (= (+ (* 9 1) ?x38) (+ 9 ?x38))) (= ?x77 (+ 9 ?x38)))))
 (let ((@x946 (rewrite (= (- ?x73 (* 9 ?x934)) (+ ?x73 (* (- 1) (* 9 ?x934)))))))
 (let ((@x355 (rewrite (= ?x67 ?x353))))
 (let ((@x429 (monotonicity @x355 (= ?x75 (* 9 ?x353 ?x74)))))
 (let ((@x939 (trans @x429 (rewrite (= (* 9 ?x353 ?x74) (* 9 ?x934))) (= ?x75 (* 9 ?x934)))))
 (let ((@x948 (trans (monotonicity @x939 (= ?x76 (- ?x73 (* 9 ?x934)))) @x946 (= ?x76 (+ ?x73 (* (- 1) (* 9 ?x934)))))))
 (let ((@x951 (trans @x948 (rewrite (= (+ ?x73 (* (- 1) (* 9 ?x934))) (+ ?x73 ?x949))) (= ?x76 (+ ?x73 ?x949)))))
 (let ((@x962 (trans (monotonicity @x951 @x527 (= ?x78 (+ (+ ?x73 ?x949) (+ 9 ?x38)))) (rewrite (= (+ (+ ?x73 ?x949) (+ 9 ?x38)) ?x958)) (= ?x78 ?x958))))
 (let ((@x970 (trans (monotonicity @x962 @x542 (= ?x81 (- ?x958 ?x540))) (rewrite (= (- ?x958 ?x540) ?x966)) (= ?x81 ?x966))))
 (let ((@x983 (monotonicity (trans @x970 @x978 (= ?x81 ?x974)) @x577 (= ?x82 (- ?x974 ?x575)))))
 (let ((@x1000 (trans (trans @x983 (rewrite (= (- ?x974 ?x575) ?x984)) (= ?x82 ?x984)) @x998 (= ?x82 ?x994))))
 (let ((@x1008 (trans (monotonicity @x1000 (= ?x83 ?x1001)) (rewrite (= ?x1001 ?x1004)) (= ?x83 ?x1004))))
 (let ((@x1018 (trans (monotonicity @x1008 (= $x84 (= ?x1004 0))) @x1016 (= $x84 $x1014))))
 (let ((@x142 (rewrite (= (= (+ (- 6) m ?x110) 0) $x140))))
 (let ((@x129 (monotonicity (rewrite (= (* (- 1) 6) (- 6))) (= (+ ?x113 (* (- 1) 6)) (+ ?x113 (- 6))))))
 (let ((@x134 (trans @x129 (rewrite (= (+ ?x113 (- 6)) (+ (- 6) m ?x110))) (= (+ ?x113 (* (- 1) 6)) (+ (- 6) m ?x110)))))
 (let ((@x122 (rewrite (= (- ?x113 6) (+ ?x113 (* (- 1) 6))))))
 (let ((?x384 (+ (- 6) ?x110)))
 (let ((?x350 (+ 6 m)))
 (let ((?x389 (+ ?x350 ?x384)))
 (let ((?x367 (+ 6 ?x29)))
 (let ((?x373 (* (- 1) ?x367)))
 (let ((?x374 (+ ?x350 ?x373)))
 (let ((@x388 (trans (rewrite (= ?x373 (+ (* (- 1) 6) (* (- 1) ?x29)))) (rewrite (= (+ (* (- 1) 6) (* (- 1) ?x29)) ?x384)) (= ?x373 ?x384))))
 (let ((@x395 (trans (monotonicity @x388 (= ?x374 ?x389)) (rewrite (= ?x389 ?x113)) (= ?x374 ?x113))))
 (let ((@x364 (trans (monotonicity @x355 (= ?x68 (* 6 ?x353))) (rewrite (= (* 6 ?x353) (+ (* 6 1) ?x29))) (= ?x68 (+ (* 6 1) ?x29)))))
 (let ((@x366 (trans @x364 (rewrite (= (+ (* 6 1) ?x29) ?x367)) (= ?x68 ?x367))))
 (let ((@x378 (trans (monotonicity (rewrite (= ?x66 ?x350)) @x366 (= ?x69 (- ?x350 ?x367))) (rewrite (= (- ?x350 ?x367) ?x374)) (= ?x69 ?x374))))
 (let ((@x399 (monotonicity (trans @x378 @x395 (= ?x69 ?x113)) (= ?x70 (- ?x113 6)))))
 (let ((@x403 (trans (trans @x399 @x122 (= ?x70 (+ ?x113 (* (- 1) 6)))) @x134 (= ?x70 (+ (- 6) m ?x110)))))
 (let ((@x407 (trans (monotonicity @x403 (= $x71 (= (+ (- 6) m ?x110) 0))) @x142 (= $x71 $x140))))
 (let ((@x907 (monotonicity (rewrite (= ?x62 (+ ?x307 ?x61))) (= ?x63 (- (+ ?x307 ?x61) k)))))
 (let ((@x912 (trans @x907 (rewrite (= (- (+ ?x307 ?x61) k) (+ (+ ?x307 ?x61) ?x252))) (= ?x63 (+ (+ ?x307 ?x61) ?x252)))))
 (let ((@x917 (trans @x912 (rewrite (= (+ (+ ?x307 ?x61) ?x252) ?x913)) (= ?x63 ?x913))))
 (let ((@x925 (trans (monotonicity @x917 (= ?x64 (+ ?x913 1))) (rewrite (= (+ ?x913 1) (+ 1 ?x307 ?x61 ?x252))) (= ?x64 (+ 1 ?x307 ?x61 ?x252)))))
 (let ((@x933 (trans (monotonicity @x925 (= $x65 (= (+ 1 ?x307 ?x61 ?x252) 0))) (rewrite (= (= (+ 1 ?x307 ?x61 ?x252) 0) $x929)) (= $x65 $x929))))
 (let ((?x865 (+ ?x49 ?x51 ?x252)))
 (let ((?x878 (+ ?x865 ?x273)))
 (let ((?x266 (* (- 1) ?x54)))
 (let ((?x873 (+ ?x865 ?x266)))
 (let ((@x275 (rewrite (= ?x266 ?x273))))
 (let ((@x885 (trans (monotonicity @x275 (= ?x873 ?x878)) (rewrite (= ?x878 ?x881)) (= ?x873 ?x881))))
 (let ((@x869 (trans (rewrite (= ?x55 (+ ?x52 ?x252))) (rewrite (= (+ ?x52 ?x252) ?x865)) (= ?x55 ?x865))))
 (let ((@x877 (trans (monotonicity @x869 (= ?x56 (- ?x865 ?x54))) (rewrite (= (- ?x865 ?x54) ?x873)) (= ?x56 ?x873))))
 (let ((@x890 (monotonicity (trans @x877 @x885 (= ?x56 ?x881)) (= ?x58 (+ ?x881 1)))))
 (let ((@x895 (trans @x890 (rewrite (= (+ ?x881 1) (+ 1 ?x49 ?x51 ?x252 ?x273))) (= ?x58 (+ 1 ?x49 ?x51 ?x252 ?x273)))))
 (let ((@x903 (trans (monotonicity @x895 (= $x59 (= (+ 1 ?x49 ?x51 ?x252 ?x273) 0))) (rewrite (= (= (+ 1 ?x49 ?x51 ?x252 ?x273) 0) $x899)) (= $x59 $x899))))
 (let ((?x803 (+ ?x34 ?x488 ?x38 ?x183)))
 (let ((?x828 (+ ?x803 ?x206)))
 (let ((?x199 (* (- 1) ?x43)))
 (let ((?x815 (+ ?x803 ?x199)))
 (let ((@x208 (rewrite (= ?x199 ?x206))))
 (let ((@x836 (trans (monotonicity @x208 (= ?x815 ?x828)) (rewrite (= ?x828 ?x832)) (= ?x815 ?x832))))
 (let ((?x763 (+ ?x34 ?x488 ?x38)))
 (let ((?x782 (+ ?x763 ?x183)))
 (let ((?x176 (* (- 1) ?x41)))
 (let ((?x777 (+ ?x763 ?x176)))
 (let ((@x185 (rewrite (= ?x176 ?x183))))
 (let ((@x808 (trans (monotonicity @x185 (= ?x777 ?x782)) (rewrite (= ?x782 ?x803)) (= ?x777 ?x803))))
 (let ((@x817 (rewrite (= (- ?x34 (* 9 ?x432)) (+ ?x34 (* (- 1) (* 9 ?x432)))))))
 (let ((@x765 (monotonicity (rewrite (= ?x36 (* 9 ?x432))) (= ?x37 (- ?x34 (* 9 ?x432))))))
 (let ((@x824 (trans (trans @x765 @x817 (= ?x37 (+ ?x34 (* (- 1) (* 9 ?x432))))) (rewrite (= (+ ?x34 (* (- 1) (* 9 ?x432))) (+ ?x34 ?x488))) (= ?x37 (+ ?x34 ?x488)))))
 (let ((@x767 (trans (monotonicity @x824 (= ?x39 (+ (+ ?x34 ?x488) ?x38))) (rewrite (= (+ (+ ?x34 ?x488) ?x38) ?x763)) (= ?x39 ?x763))))
 (let ((@x781 (trans (monotonicity @x767 (= ?x44 (- ?x763 ?x41))) (rewrite (= (- ?x763 ?x41) ?x777)) (= ?x44 ?x777))))
 (let ((@x814 (monotonicity (trans @x781 @x808 (= ?x44 ?x803)) (= ?x45 (- ?x803 ?x43)))))
 (let ((@x838 (trans (trans @x814 (rewrite (= (- ?x803 ?x43) ?x815)) (= ?x45 ?x815)) @x836 (= ?x45 ?x832))))
 (let ((@x852 (trans (monotonicity @x838 (= ?x47 (+ ?x832 4))) (rewrite (= (+ ?x832 4) (+ 4 ?x34 ?x488 ?x38 ?x183 ?x206))) (= ?x47 (+ 4 ?x34 ?x488 ?x38 ?x183 ?x206)))))
 (let ((@x855 (monotonicity @x852 (= $x48 (= (+ 4 ?x34 ?x488 ?x38 ?x183 ?x206) 0)))))
 (let ((@x861 (trans @x855 (rewrite (= (= (+ 4 ?x34 ?x488 ?x38 ?x183 ?x206) 0) $x857)) (= $x48 $x857))))
 (let ((@x112 (trans (rewrite (= ?x30 (+ m (* (- 1) ?x29)))) (rewrite (= (+ m (* (- 1) ?x29)) ?x113)) (= ?x30 ?x113))))
 (let ((@x124 (trans (monotonicity @x112 (= ?x31 (- ?x113 6))) @x122 (= ?x31 (+ ?x113 (* (- 1) 6))))))
 (let ((@x139 (monotonicity (trans @x124 @x134 (= ?x31 (+ (- 6) m ?x110))) (= $x33 (= (+ (- 6) m ?x110) 0)))))
 (let ((@x144 (trans @x139 @x142 (= $x33 $x140))))
 (let ((@x1093 (monotonicity @x144 @x861 @x903 @x933 @x407 @x1018 @x1081 @x1090 (= $x101 (and $x140 $x857 $x899 $x929 $x140 $x1014 $x1077 $x1148)))))
 (trans @x1093 (rewrite (= (and $x140 $x857 $x899 $x929 $x140 $x1014 $x1077 $x1148) $x1096)) (= $x101 $x1096))))))))))))))))))))))))))))))))))))))))))))))))))))))))))))))))))))))))))))))))))))))))))))))))))))))))))))))))))))))))))))))))))))))))))))))))))))))))))))))))))))))))))))))))))))))))))))))))))))))))))))))))))))))))))
 ))
 (let ((@x103 (asserted $x102)))
 (let ((@x1095 (mp (mp @x103 (quant-intro (proof-bind ?x1104) (= $x102 $x1101)) $x1101) (rewrite (= $x1101 $x1101)) $x1101)))
 (let ((@x1184 (mp~ (mp @x1095 (quant-intro (proof-bind ?x1225) (= $x1101 $x1223)) $x1223) (sk (~ $x1223 $x1181)) $x1181)))
 (let ((@x1316 (mp @x1184 (rewrite (= $x1181 $x1302)) $x1302)))
 (let (($x1292 (>= ?x1308 (- 7))))
 (let (($x1188 (>= ?x1206 (- 6))))
 (let ((@x1318 (and-elim @x1316 $x1215)))
 (let (($x1120 (>= ?x1235 (- 1))))
 (let ((@x1286 (and-elim @x1316 $x1236)))
 (let ((@x1256 (unit-resolution ((_ th-lemma arith assign-bounds -1 -1) (or $x1292 (not $x1188) (not $x1120))) (unit-resolution ((_ th-lemma arith triangle-eq) (or (not $x1236) $x1120)) @x1286 $x1120) (unit-resolution ((_ th-lemma arith triangle-eq) (or (not $x1215) $x1188)) @x1318 $x1188) $x1292)))
 (let (($x1291 (<= ?x1308 (- 7))))
 (let (($x1187 (<= ?x1206 (- 6))))
 (let (($x1125 (<= ?x1235 (- 1))))
 (let ((@x1278 (unit-resolution ((_ th-lemma arith assign-bounds -1 -1) (or $x1291 (not $x1187) (not $x1125))) (unit-resolution ((_ th-lemma arith triangle-eq) (or (not $x1236) $x1125)) @x1286 $x1125) (unit-resolution ((_ th-lemma arith triangle-eq) (or (not $x1215) $x1187)) @x1318 $x1187) $x1291)))
 (unit-resolution ((_ th-lemma arith triangle-eq) (or $x1310 (not $x1291) (not $x1292))) @x1278 @x1256 (and-elim @x1316 $x1315) false))))))))))))))))))))))))))))))))))))))))))))))))))))

